; benchmark generated from python API
(set-info :status unknown)
(declare-fun x_days () Int)
(declare-fun y_days () Int)
(assert
 (>= x_days (- 36525)))
(assert
 (<= x_days 36525))
(assert
 (>= y_days (- 36525)))
(assert
 (<= y_days 36525))
(assert
 (>= x_days 7244))
(assert
 (<= x_days 7276))
(assert
 (let (($x29 (or (and (= (mod 2000 4) 0) (and (distinct (mod 2000 100) 0) true)) (= (mod 2000 400) 0))))
 (let ((?x36 (ite (= 3 2) (ite $x29 31 31) (ite (= 3 1) (ite $x29 0 0) 0))))
 (let ((?x40 (ite $x29 60 59)))
 (let ((?x41 (ite (= 3 3) ?x40 ?x36)))
 (let ((?x46 (ite (= 3 4) (ite $x29 91 90) ?x41)))
 (let ((?x52 (ite (= 3 5) (ite $x29 121 120) ?x46)))
 (let ((?x58 (ite (= 3 6) (ite $x29 152 151) ?x52)))
 (let ((?x64 (ite (= 3 7) (ite $x29 182 181) ?x58)))
 (let ((?x70 (ite (= 3 8) (ite $x29 213 212) ?x64)))
 (let ((?x76 (ite (= 3 9) (ite $x29 244 243) ?x70)))
 (let ((?x82 (ite (= 3 10) (ite $x29 274 273) ?x76)))
 (let ((?x88 (ite (= 3 11) (ite $x29 305 304) ?x82)))
 (let ((?x16 (- (+ (* 365 (- 2000 1)) (div (- 2000 1) 4)) (div (- 2000 1) 100))))
 (let ((?x95 (+ (+ ?x16 (div (- 2000 1) 400)) (ite (= 3 12) (ite $x29 335 334) ?x88))))
 (let ((?x97 (+ ?x95 (- 1 1))))
 (let ((?x1307 (+ x_days ?x97)))
 (let ((?x129 (mod ?x1307 146097)))
 (let ((?x832 (div ?x129 36524)))
 (let ((?x1080 (ite (<= 4 ?x832) 3 ?x832)))
 (let ((?x135 (- ?x129 (* ?x1080 36524))))
 (let ((?x343 (mod ?x135 1461)))
 (let ((?x1184 (div ?x343 365)))
 (let ((?x830 (ite (<= 4 ?x1184) 3 ?x1184)))
 (let ((?x641 (+ (+ (* (div ?x1307 146097) 400) (* ?x1080 100)) (* (div ?x135 1461) 4))))
 (let ((?x377 (+ (+ ?x641 ?x830) 1)))
 (let (($x1267 (or (and (= (mod ?x377 4) 0) (and (distinct (mod ?x377 100) 0) true)) (= (mod ?x377 400) 0))))
 (let ((?x1106 (- ?x343 (* ?x830 365))))
 (let ((?x938 (ite $x1267 31 31)))
 (let (($x186 (>= ?x1106 ?x938)))
 (let ((?x889 (ite $x186 (+ (- ?x1106 ?x938) 1) (+ (- ?x1106 (ite $x1267 0 0)) 1))))
 (let ((?x100 (ite $x1267 60 59)))
 (let (($x1426 (>= ?x1106 ?x100)))
 (let ((?x149 (ite $x1267 91 90)))
 (let (($x606 (>= ?x1106 ?x149)))
 (let ((?x395 (ite $x606 (+ (- ?x1106 ?x149) 1) (ite $x1426 (+ (- ?x1106 ?x100) 1) ?x889))))
 (let ((?x282 (ite $x1267 121 120)))
 (let (($x480 (>= ?x1106 ?x282)))
 (let ((?x827 (ite $x1267 152 151)))
 (let (($x1477 (>= ?x1106 ?x827)))
 (let ((?x269 (ite $x1477 (+ (- ?x1106 ?x827) 1) (ite $x480 (+ (- ?x1106 ?x282) 1) ?x395))))
 (let ((?x257 (ite $x1267 182 181)))
 (let (($x1157 (>= ?x1106 ?x257)))
 (let ((?x510 (ite $x1267 213 212)))
 (let (($x1062 (>= ?x1106 ?x510)))
 (let ((?x620 (ite $x1062 (+ (- ?x1106 ?x510) 1) (ite $x1157 (+ (- ?x1106 ?x257) 1) ?x269))))
 (let ((?x447 (ite $x1267 244 243)))
 (let (($x266 (>= ?x1106 ?x447)))
 (let ((?x1471 (ite $x1267 274 273)))
 (let (($x1120 (>= ?x1106 ?x1471)))
 (let ((?x504 (ite $x1120 (+ (- ?x1106 ?x1471) 1) (ite $x266 (+ (- ?x1106 ?x447) 1) ?x620))))
 (let ((?x299 (ite $x1267 305 304)))
 (let (($x575 (>= ?x1106 ?x299)))
 (let ((?x430 (ite $x1267 335 334)))
 (let (($x1335 (>= ?x1106 ?x430)))
 (let ((?x241 (ite $x1335 (+ (- ?x1106 ?x430) 1) (ite $x575 (+ (- ?x1106 ?x299) 1) ?x504))))
 (let ((?x1134 (ite $x480 5 (ite $x606 4 (ite $x1426 3 (ite $x186 2 1))))))
 (let ((?x617 (ite $x266 9 (ite $x1062 8 (ite $x1157 7 (ite $x1477 6 ?x1134))))))
 (let ((?x564 (- (+ (ite $x1335 12 (ite $x575 11 (ite $x1120 10 ?x617))) 0) 1)))
 (let ((?x293 (+ (mod ?x564 12) 1)))
 (let ((?x1359 (ite (or (= ?x293 4) (= ?x293 6) (= ?x293 9) (= ?x293 11)) 30 31)))
 (let (($x307 (and (= (mod (+ (+ ?x377 1) (div ?x564 12)) 4) 0) (and (distinct (mod (+ (+ ?x377 1) (div ?x564 12)) 100) 0) true))))
 (let (($x1126 (or $x307 (= (mod (+ (+ ?x377 1) (div ?x564 12)) 400) 0))))
 (let (($x156 (= ?x293 2)))
 (let ((?x255 (ite $x156 (ite $x1126 29 28) ?x1359)))
 (let (($x707 (> 1 ?x241)))
 (let (($x896 (= 2 ?x293)))
 (let ((?x354 (ite $x896 (ite $x1126 31 31) (ite (= 1 ?x293) (ite $x1126 0 0) 0))))
 (let (($x1201 (= 3 ?x293)))
 (let (($x229 (= 4 ?x293)))
 (let ((?x315 (ite $x229 (ite $x1126 91 90) (ite $x1201 (ite $x1126 60 59) ?x354))))
 (let (($x1128 (= 5 ?x293)))
 (let (($x154 (= 6 ?x293)))
 (let ((?x1615 (ite $x154 (ite $x1126 152 151) (ite $x1128 (ite $x1126 121 120) ?x315))))
 (let (($x1324 (= 7 ?x293)))
 (let (($x1781 (= 8 ?x293)))
 (let ((?x1672 (ite $x1781 (ite $x1126 213 212) (ite $x1324 (ite $x1126 182 181) ?x1615))))
 (let (($x1396 (= 9 ?x293)))
 (let (($x873 (= 10 ?x293)))
 (let ((?x547 (ite $x873 (ite $x1126 274 273) (ite $x1396 (ite $x1126 244 243) ?x1672))))
 (let (($x768 (= 11 ?x293)))
 (let (($x571 (= 12 ?x293)))
 (let ((?x658 (ite $x571 (ite $x1126 335 334) (ite $x768 (ite $x1126 305 304) ?x547))))
 (let ((?x1406 (+ (* 365 (- (+ (+ ?x377 1) (div ?x564 12)) 1)) (div (- (+ (+ ?x377 1) (div ?x564 12)) 1) 4))))
 (let ((?x737 (+ (- ?x1406 (div (- (+ (+ ?x377 1) (div ?x564 12)) 1) 100)) (div (- (+ (+ ?x377 1) (div ?x564 12)) 1) 400))))
 (let ((?x164 (+ (+ ?x737 ?x658) (- (ite $x707 1 (ite (> ?x241 ?x255) ?x255 ?x241)) 1))))
 (= y_days (- (+ ?x164 0) ?x97))))))))))))))))))))))))))))))))))))))))))))))))))))))))))))))))))))))))))))))))))))))))
(assert
 (let (($x29 (or (and (= (mod 2000 4) 0) (and (distinct (mod 2000 100) 0) true)) (= (mod 2000 400) 0))))
(let ((?x36 (ite (= 3 2) (ite $x29 31 31) (ite (= 3 1) (ite $x29 0 0) 0))))
(let ((?x40 (ite $x29 60 59)))
(let ((?x41 (ite (= 3 3) ?x40 ?x36)))
(let ((?x46 (ite (= 3 4) (ite $x29 91 90) ?x41)))
(let ((?x52 (ite (= 3 5) (ite $x29 121 120) ?x46)))
(let ((?x58 (ite (= 3 6) (ite $x29 152 151) ?x52)))
(let ((?x64 (ite (= 3 7) (ite $x29 182 181) ?x58)))
(let ((?x70 (ite (= 3 8) (ite $x29 213 212) ?x64)))
(let ((?x76 (ite (= 3 9) (ite $x29 244 243) ?x70)))
(let ((?x82 (ite (= 3 10) (ite $x29 274 273) ?x76)))
(let ((?x88 (ite (= 3 11) (ite $x29 305 304) ?x82)))
(let ((?x16 (- (+ (* 365 (- 2000 1)) (div (- 2000 1) 4)) (div (- 2000 1) 100))))
(let ((?x95 (+ (+ ?x16 (div (- 2000 1) 400)) (ite (= 3 12) (ite $x29 335 334) ?x88))))
(let ((?x97 (+ ?x95 (- 1 1))))
(let ((?x1307 (+ x_days ?x97)))
(let ((?x129 (mod ?x1307 146097)))
(let ((?x832 (div ?x129 36524)))
(let ((?x1080 (ite (<= 4 ?x832) 3 ?x832)))
(let ((?x135 (- ?x129 (* ?x1080 36524))))
(let ((?x343 (mod ?x135 1461)))
(let ((?x1184 (div ?x343 365)))
(let ((?x830 (ite (<= 4 ?x1184) 3 ?x1184)))
(let ((?x641 (+ (+ (* (div ?x1307 146097) 400) (* ?x1080 100)) (* (div ?x135 1461) 4))))
(let ((?x377 (+ (+ ?x641 ?x830) 1)))
(let (($x1267 (or (and (= (mod ?x377 4) 0) (and (distinct (mod ?x377 100) 0) true)) (= (mod ?x377 400) 0))))
(let ((?x1106 (- ?x343 (* ?x830 365))))
(let ((?x938 (ite $x1267 31 31)))
(let (($x186 (>= ?x1106 ?x938)))
(let ((?x889 (ite $x186 (+ (- ?x1106 ?x938) 1) (+ (- ?x1106 (ite $x1267 0 0)) 1))))
(let ((?x100 (ite $x1267 60 59)))
(let (($x1426 (>= ?x1106 ?x100)))
(let ((?x149 (ite $x1267 91 90)))
(let (($x606 (>= ?x1106 ?x149)))
(let ((?x395 (ite $x606 (+ (- ?x1106 ?x149) 1) (ite $x1426 (+ (- ?x1106 ?x100) 1) ?x889))))
(let ((?x282 (ite $x1267 121 120)))
(let (($x480 (>= ?x1106 ?x282)))
(let ((?x827 (ite $x1267 152 151)))
(let (($x1477 (>= ?x1106 ?x827)))
(let ((?x269 (ite $x1477 (+ (- ?x1106 ?x827) 1) (ite $x480 (+ (- ?x1106 ?x282) 1) ?x395))))
(let ((?x257 (ite $x1267 182 181)))
(let (($x1157 (>= ?x1106 ?x257)))
(let ((?x510 (ite $x1267 213 212)))
(let (($x1062 (>= ?x1106 ?x510)))
(let ((?x620 (ite $x1062 (+ (- ?x1106 ?x510) 1) (ite $x1157 (+ (- ?x1106 ?x257) 1) ?x269))))
(let ((?x447 (ite $x1267 244 243)))
(let (($x266 (>= ?x1106 ?x447)))
(let ((?x1471 (ite $x1267 274 273)))
(let (($x1120 (>= ?x1106 ?x1471)))
(let ((?x504 (ite $x1120 (+ (- ?x1106 ?x1471) 1) (ite $x266 (+ (- ?x1106 ?x447) 1) ?x620))))
(let ((?x299 (ite $x1267 305 304)))
(let (($x575 (>= ?x1106 ?x299)))
(let ((?x430 (ite $x1267 335 334)))
(let (($x1335 (>= ?x1106 ?x430)))
(let ((?x241 (ite $x1335 (+ (- ?x1106 ?x430) 1) (ite $x575 (+ (- ?x1106 ?x299) 1) ?x504))))
(let ((?x1134 (ite $x480 5 (ite $x606 4 (ite $x1426 3 (ite $x186 2 1))))))
(let ((?x617 (ite $x266 9 (ite $x1062 8 (ite $x1157 7 (ite $x1477 6 ?x1134))))))
(let ((?x564 (- (+ (ite $x1335 12 (ite $x575 11 (ite $x1120 10 ?x617))) 0) 1)))
(let ((?x293 (+ (mod ?x564 12) 1)))
(let ((?x1359 (ite (or (= ?x293 4) (= ?x293 6) (= ?x293 9) (= ?x293 11)) 30 31)))
(let (($x659 (and (= (mod (+ (+ ?x377 0) (div ?x564 12)) 4) 0) (and (distinct (mod (+ (+ ?x377 0) (div ?x564 12)) 100) 0) true))))
(let (($x250 (or $x659 (= (mod (+ (+ ?x377 0) (div ?x564 12)) 400) 0))))
(let (($x156 (= ?x293 2)))
(let ((?x131 (ite $x156 (ite $x250 29 28) ?x1359)))
(let (($x707 (> 1 ?x241)))
(let (($x896 (= 2 ?x293)))
(let ((?x254 (ite $x896 (ite $x250 31 31) (ite (= 1 ?x293) (ite $x250 0 0) 0))))
(let (($x1201 (= 3 ?x293)))
(let (($x229 (= 4 ?x293)))
(let ((?x731 (ite $x229 (ite $x250 91 90) (ite $x1201 (ite $x250 60 59) ?x254))))
(let (($x1128 (= 5 ?x293)))
(let (($x154 (= 6 ?x293)))
(let ((?x626 (ite $x154 (ite $x250 152 151) (ite $x1128 (ite $x250 121 120) ?x731))))
(let (($x1324 (= 7 ?x293)))
(let (($x1781 (= 8 ?x293)))
(let ((?x878 (ite $x1781 (ite $x250 213 212) (ite $x1324 (ite $x250 182 181) ?x626))))
(let (($x1396 (= 9 ?x293)))
(let (($x873 (= 10 ?x293)))
(let ((?x534 (ite $x873 (ite $x250 274 273) (ite $x1396 (ite $x250 244 243) ?x878))))
(let (($x768 (= 11 ?x293)))
(let (($x571 (= 12 ?x293)))
(let ((?x644 (ite $x571 (ite $x250 335 334) (ite $x768 (ite $x250 305 304) ?x534))))
(let ((?x451 (+ (* 365 (- (+ (+ ?x377 0) (div ?x564 12)) 1)) (div (- (+ (+ ?x377 0) (div ?x564 12)) 1) 4))))
(let ((?x443 (+ (- ?x451 (div (- (+ (+ ?x377 0) (div ?x564 12)) 1) 100)) (div (- (+ (+ ?x377 0) (div ?x564 12)) 1) 400))))
(let ((?x1009 (+ (+ ?x443 ?x644) (- (ite $x707 1 (ite (> ?x241 ?x131) ?x131 ?x241)) 1))))
(not (= y_days (- (+ ?x1009 365) ?x97)))))))))))))))))))))))))))))))))))))))))))))))))))))))))))))))))))))))))))))))))))))))))
(check-sat)
